44
253 338 260 
357 254 268 
308 262 403 
353 250 427 
393 260 340 
331 392 250 
372 253 335 
328 280 
421 336 316 
303 448 465 
303 483 313 
367 294 283 
265 491 
271 329 444 
322 250 389 
363 251 496 
259 259 363 
308 295 353 
298 408 
406 292 498 
268 398 
265 311 
325 424 277 
414 259 316 
372 276 
324 375 491 
259 266 251 
296 363 402 
432 396 260 
485 328 
311 347 255 
493 252 
279 366 
383 295 256 
317 389 421 
250 268 429 
303 254 330 
351 399 251 
380 275 
262 282 289 
368 381 296 
433 365 
265 365 257 
252 289 
